TCS_Benchmarks/redos_fix/snort3_output_distinct_3713_3712_0_0.smt2
(set-logic QF_S)
(declare-const x String)
(assert (str.in.re x (re.inter  (re.++  (re.union (str.to_re "") (re.union  (re.++ (re.range "\u{61}" "\u{7a}")  (str.to_re "")) (re.union  (re.++ (re.range "\u{61}" "\u{7a}")   (re.++ (re.range "\u{61}" "\u{7a}")  (str.to_re ""))) (re.union  (re.++ (re.range "\u{61}" "\u{7a}")   (re.++ (re.range "\u{61}" "\u{7a}")   (re.++ (re.range "\u{61}" "\u{7a}")  (str.to_re "")))) (re.union  (re.++ (re.range "\u{61}" "\u{7a}")   (re.++ (re.range "\u{61}" "\u{7a}")   (re.++ (re.range "\u{61}" "\u{7a}")   (re.++ (re.range "\u{61}" "\u{7a}")  (str.to_re ""))))) (re.union  (re.++ (re.range "\u{61}" "\u{7a}")   (re.++ (re.range "\u{61}" "\u{7a}")   (re.++ (re.range "\u{61}" "\u{7a}")   (re.++ (re.range "\u{61}" "\u{7a}")   (re.++ (re.range "\u{61}" "\u{7a}")  (str.to_re "")))))) (re.union  (re.++ (re.range "\u{61}" "\u{7a}")   (re.++ (re.range "\u{61}" "\u{7a}")   (re.++ (re.range "\u{61}" "\u{7a}")   (re.++ (re.range "\u{61}" "\u{7a}")   (re.++ (re.range "\u{61}" "\u{7a}")   (re.++ (re.range "\u{61}" "\u{7a}")  (str.to_re ""))))))) (re.union  (re.++ (re.range "\u{61}" "\u{7a}")   (re.++ (re.range "\u{61}" "\u{7a}")   (re.++ (re.range "\u{61}" "\u{7a}")   (re.++ (re.range "\u{61}" "\u{7a}")   (re.++ (re.range "\u{61}" "\u{7a}")   (re.++ (re.range "\u{61}" "\u{7a}")   (re.++ (re.range "\u{61}" "\u{7a}")  (str.to_re "")))))))) (re.union  (re.++ (re.range "\u{61}" "\u{7a}")   (re.++ (re.range "\u{61}" "\u{7a}")   (re.++ (re.range "\u{61}" "\u{7a}")   (re.++ (re.range "\u{61}" "\u{7a}")   (re.++ (re.range "\u{61}" "\u{7a}")   (re.++ (re.range "\u{61}" "\u{7a}")   (re.++ (re.range "\u{61}" "\u{7a}")   (re.++ (re.range "\u{61}" "\u{7a}")  (str.to_re ""))))))))) (re.union  (re.++ (re.range "\u{61}" "\u{7a}")   (re.++ (re.range "\u{61}" "\u{7a}")   (re.++ (re.range "\u{61}" "\u{7a}")   (re.++ (re.range "\u{61}" "\u{7a}")   (re.++ (re.range "\u{61}" "\u{7a}")   (re.++ (re.range "\u{61}" "\u{7a}")   (re.++ (re.range "\u{61}" "\u{7a}")   (re.++ (re.range "\u{61}" "\u{7a}")   (re.++ (re.range "\u{61}" "\u{7a}")  (str.to_re "")))))))))) (re.union  (re.++ (re.range "\u{61}" "\u{7a}")   (re.++ (re.range "\u{61}" "\u{7a}")   (re.++ (re.range "\u{61}" "\u{7a}")   (re.++ (re.range "\u{61}" "\u{7a}")   (re.++ (re.range "\u{61}" "\u{7a}")   (re.++ (re.range "\u{61}" "\u{7a}")   (re.++ (re.range "\u{61}" "\u{7a}")   (re.++ (re.range "\u{61}" "\u{7a}")   (re.++ (re.range "\u{61}" "\u{7a}")   (re.++ (re.range "\u{61}" "\u{7a}")  (str.to_re ""))))))))))) (re.union  (re.++ (re.range "\u{61}" "\u{7a}")   (re.++ (re.range "\u{61}" "\u{7a}")   (re.++ (re.range "\u{61}" "\u{7a}")   (re.++ (re.range "\u{61}" "\u{7a}")   (re.++ (re.range "\u{61}" "\u{7a}")   (re.++ (re.range "\u{61}" "\u{7a}")   (re.++ (re.range "\u{61}" "\u{7a}")   (re.++ (re.range "\u{61}" "\u{7a}")   (re.++ (re.range "\u{61}" "\u{7a}")   (re.++ (re.range "\u{61}" "\u{7a}")   (re.++ (re.range "\u{61}" "\u{7a}")  (str.to_re "")))))))))))) (re.union  (re.++ (re.range "\u{61}" "\u{7a}")   (re.++ (re.range "\u{61}" "\u{7a}")   (re.++ (re.range "\u{61}" "\u{7a}")   (re.++ (re.range "\u{61}" "\u{7a}")   (re.++ (re.range "\u{61}" "\u{7a}")   (re.++ (re.range "\u{61}" "\u{7a}")   (re.++ (re.range "\u{61}" "\u{7a}")   (re.++ (re.range "\u{61}" "\u{7a}")   (re.++ (re.range "\u{61}" "\u{7a}")   (re.++ (re.range "\u{61}" "\u{7a}")   (re.++ (re.range "\u{61}" "\u{7a}")   (re.++ (re.range "\u{61}" "\u{7a}")  (str.to_re "")))))))))))))  (re.++ (re.range "\u{61}" "\u{7a}")   (re.++ (re.range "\u{61}" "\u{7a}")   (re.++ (re.range "\u{61}" "\u{7a}")   (re.++ (re.range "\u{61}" "\u{7a}")   (re.++ (re.range "\u{61}" "\u{7a}")   (re.++ (re.range "\u{61}" "\u{7a}")   (re.++ (re.range "\u{61}" "\u{7a}")   (re.++ (re.range "\u{61}" "\u{7a}")   (re.++ (re.range "\u{61}" "\u{7a}")   (re.++ (re.range "\u{61}" "\u{7a}")   (re.++ (re.range "\u{61}" "\u{7a}")   (re.++ (re.range "\u{61}" "\u{7a}")   (re.++ (re.range "\u{61}" "\u{7a}")  (str.to_re "")))))))))))))))))))))))))))  (re.union   (re.union (re.range "\u{30}" "\u{39}") (re.range "\u{61}" "\u{7a}")) (re.union  (re.++  (re.union (re.range "\u{30}" "\u{39}") (re.range "\u{61}" "\u{7a}"))    (re.union (re.range "\u{30}" "\u{39}") (re.range "\u{61}" "\u{7a}"))) (re.union  (re.++  (re.union (re.range "\u{30}" "\u{39}") (re.range "\u{61}" "\u{7a}"))   (re.++  (re.union (re.range "\u{30}" "\u{39}") (re.range "\u{61}" "\u{7a}"))    (re.union (re.range "\u{30}" "\u{39}") (re.range "\u{61}" "\u{7a}")))) (re.union  (re.++  (re.union (re.range "\u{30}" "\u{39}") (re.range "\u{61}" "\u{7a}"))   (re.++  (re.union (re.range "\u{30}" "\u{39}") (re.range "\u{61}" "\u{7a}"))   (re.++  (re.union (re.range "\u{30}" "\u{39}") (re.range "\u{61}" "\u{7a}"))    (re.union (re.range "\u{30}" "\u{39}") (re.range "\u{61}" "\u{7a}"))))) (re.union  (re.++  (re.union (re.range "\u{30}" "\u{39}") (re.range "\u{61}" "\u{7a}"))   (re.++  (re.union (re.range "\u{30}" "\u{39}") (re.range "\u{61}" "\u{7a}"))   (re.++  (re.union (re.range "\u{30}" "\u{39}") (re.range "\u{61}" "\u{7a}"))   (re.++  (re.union (re.range "\u{30}" "\u{39}") (re.range "\u{61}" "\u{7a}"))    (re.union (re.range "\u{30}" "\u{39}") (re.range "\u{61}" "\u{7a}")))))) (re.union  (re.++  (re.union (re.range "\u{30}" "\u{39}") (re.range "\u{61}" "\u{7a}"))   (re.++  (re.union (re.range "\u{30}" "\u{39}") (re.range "\u{61}" "\u{7a}"))   (re.++  (re.union (re.range "\u{30}" "\u{39}") (re.range "\u{61}" "\u{7a}"))   (re.++  (re.union (re.range "\u{30}" "\u{39}") (re.range "\u{61}" "\u{7a}"))   (re.++  (re.union (re.range "\u{30}" "\u{39}") (re.range "\u{61}" "\u{7a}"))    (re.union (re.range "\u{30}" "\u{39}") (re.range "\u{61}" "\u{7a}"))))))) (re.union  (re.++  (re.union (re.range "\u{30}" "\u{39}") (re.range "\u{61}" "\u{7a}"))   (re.++  (re.union (re.range "\u{30}" "\u{39}") (re.range "\u{61}" "\u{7a}"))   (re.++  (re.union (re.range "\u{30}" "\u{39}") (re.range "\u{61}" "\u{7a}"))   (re.++  (re.union (re.range "\u{30}" "\u{39}") (re.range "\u{61}" "\u{7a}"))   (re.++  (re.union (re.range "\u{30}" "\u{39}") (re.range "\u{61}" "\u{7a}"))   (re.++  (re.union (re.range "\u{30}" "\u{39}") (re.range "\u{61}" "\u{7a}"))    (re.union (re.range "\u{30}" "\u{39}") (re.range "\u{61}" "\u{7a}")))))))) (re.union  (re.++  (re.union (re.range "\u{30}" "\u{39}") (re.range "\u{61}" "\u{7a}"))   (re.++  (re.union (re.range "\u{30}" "\u{39}") (re.range "\u{61}" "\u{7a}"))   (re.++  (re.union (re.range "\u{30}" "\u{39}") (re.range "\u{61}" "\u{7a}"))   (re.++  (re.union (re.range "\u{30}" "\u{39}") (re.range "\u{61}" "\u{7a}"))   (re.++  (re.union (re.range "\u{30}" "\u{39}") (re.range "\u{61}" "\u{7a}"))   (re.++  (re.union (re.range "\u{30}" "\u{39}") (re.range "\u{61}" "\u{7a}"))   (re.++  (re.union (re.range "\u{30}" "\u{39}") (re.range "\u{61}" "\u{7a}"))    (re.union (re.range "\u{30}" "\u{39}") (re.range "\u{61}" "\u{7a}"))))))))) (re.union  (re.++  (re.union (re.range "\u{30}" "\u{39}") (re.range "\u{61}" "\u{7a}"))   (re.++  (re.union (re.range "\u{30}" "\u{39}") (re.range "\u{61}" "\u{7a}"))   (re.++  (re.union (re.range "\u{30}" "\u{39}") (re.range "\u{61}" "\u{7a}"))   (re.++  (re.union (re.range "\u{30}" "\u{39}") (re.range "\u{61}" "\u{7a}"))   (re.++  (re.union (re.range "\u{30}" "\u{39}") (re.range "\u{61}" "\u{7a}"))   (re.++  (re.union (re.range "\u{30}" "\u{39}") (re.range "\u{61}" "\u{7a}"))   (re.++  (re.union (re.range "\u{30}" "\u{39}") (re.range "\u{61}" "\u{7a}"))   (re.++  (re.union (re.range "\u{30}" "\u{39}") (re.range "\u{61}" "\u{7a}"))    (re.union (re.range "\u{30}" "\u{39}") (re.range "\u{61}" "\u{7a}")))))))))) (re.union  (re.++  (re.union (re.range "\u{30}" "\u{39}") (re.range "\u{61}" "\u{7a}"))   (re.++  (re.union (re.range "\u{30}" "\u{39}") (re.range "\u{61}" "\u{7a}"))   (re.++  (re.union (re.range "\u{30}" "\u{39}") (re.range "\u{61}" "\u{7a}"))   (re.++  (re.union (re.range "\u{30}" "\u{39}") (re.range "\u{61}" "\u{7a}"))   (re.++  (re.union (re.range "\u{30}" "\u{39}") (re.range "\u{61}" "\u{7a}"))   (re.++  (re.union (re.range "\u{30}" "\u{39}") (re.range "\u{61}" "\u{7a}"))   (re.++  (re.union (re.range "\u{30}" "\u{39}") (re.range "\u{61}" "\u{7a}"))   (re.++  (re.union (re.range "\u{30}" "\u{39}") (re.range "\u{61}" "\u{7a}"))   (re.++  (re.union (re.range "\u{30}" "\u{39}") (re.range "\u{61}" "\u{7a}"))    (re.union (re.range "\u{30}" "\u{39}") (re.range "\u{61}" "\u{7a}")))))))))))  (re.++  (re.union (re.range "\u{30}" "\u{39}") (re.range "\u{61}" "\u{7a}"))   (re.++  (re.union (re.range "\u{30}" "\u{39}") (re.range "\u{61}" "\u{7a}"))   (re.++  (re.union (re.range "\u{30}" "\u{39}") (re.range "\u{61}" "\u{7a}"))   (re.++  (re.union (re.range "\u{30}" "\u{39}") (re.range "\u{61}" "\u{7a}"))   (re.++  (re.union (re.range "\u{30}" "\u{39}") (re.range "\u{61}" "\u{7a}"))   (re.++  (re.union (re.range "\u{30}" "\u{39}") (re.range "\u{61}" "\u{7a}"))   (re.++  (re.union (re.range "\u{30}" "\u{39}") (re.range "\u{61}" "\u{7a}"))   (re.++  (re.union (re.range "\u{30}" "\u{39}") (re.range "\u{61}" "\u{7a}"))   (re.++  (re.union (re.range "\u{30}" "\u{39}") (re.range "\u{61}" "\u{7a}"))   (re.++  (re.union (re.range "\u{30}" "\u{39}") (re.range "\u{61}" "\u{7a}"))    (re.union (re.range "\u{30}" "\u{39}") (re.range "\u{61}" "\u{7a}")))))))))))))))))))))))  (re.++  (re.union (str.to_re "") (re.union  (re.++ (re.range "\u{61}" "\u{7a}")  (str.to_re "")) (re.union  (re.++ (re.range "\u{61}" "\u{7a}")   (re.++ (re.range "\u{61}" "\u{7a}")  (str.to_re ""))) (re.union  (re.++ (re.range "\u{61}" "\u{7a}")   (re.++ (re.range "\u{61}" "\u{7a}")   (re.++ (re.range "\u{61}" "\u{7a}")  (str.to_re "")))) (re.union  (re.++ (re.range "\u{61}" "\u{7a}")   (re.++ (re.range "\u{61}" "\u{7a}")   (re.++ (re.range "\u{61}" "\u{7a}")   (re.++ (re.range "\u{61}" "\u{7a}")  (str.to_re ""))))) (re.union  (re.++ (re.range "\u{61}" "\u{7a}")   (re.++ (re.range "\u{61}" "\u{7a}")   (re.++ (re.range "\u{61}" "\u{7a}")   (re.++ (re.range "\u{61}" "\u{7a}")   (re.++ (re.range "\u{61}" "\u{7a}")  (str.to_re "")))))) (re.union  (re.++ (re.range "\u{61}" "\u{7a}")   (re.++ (re.range "\u{61}" "\u{7a}")   (re.++ (re.range "\u{61}" "\u{7a}")   (re.++ (re.range "\u{61}" "\u{7a}")   (re.++ (re.range "\u{61}" "\u{7a}")   (re.++ (re.range "\u{61}" "\u{7a}")  (str.to_re ""))))))) (re.union  (re.++ (re.range "\u{61}" "\u{7a}")   (re.++ (re.range "\u{61}" "\u{7a}")   (re.++ (re.range "\u{61}" "\u{7a}")   (re.++ (re.range "\u{61}" "\u{7a}")   (re.++ (re.range "\u{61}" "\u{7a}")   (re.++ (re.range "\u{61}" "\u{7a}")   (re.++ (re.range "\u{61}" "\u{7a}")  (str.to_re "")))))))) (re.union  (re.++ (re.range "\u{61}" "\u{7a}")   (re.++ (re.range "\u{61}" "\u{7a}")   (re.++ (re.range "\u{61}" "\u{7a}")   (re.++ (re.range "\u{61}" "\u{7a}")   (re.++ (re.range "\u{61}" "\u{7a}")   (re.++ (re.range "\u{61}" "\u{7a}")   (re.++ (re.range "\u{61}" "\u{7a}")   (re.++ (re.range "\u{61}" "\u{7a}")  (str.to_re ""))))))))) (re.union  (re.++ (re.range "\u{61}" "\u{7a}")   (re.++ (re.range "\u{61}" "\u{7a}")   (re.++ (re.range "\u{61}" "\u{7a}")   (re.++ (re.range "\u{61}" "\u{7a}")   (re.++ (re.range "\u{61}" "\u{7a}")   (re.++ (re.range "\u{61}" "\u{7a}")   (re.++ (re.range "\u{61}" "\u{7a}")   (re.++ (re.range "\u{61}" "\u{7a}")   (re.++ (re.range "\u{61}" "\u{7a}")  (str.to_re "")))))))))) (re.union  (re.++ (re.range "\u{61}" "\u{7a}")   (re.++ (re.range "\u{61}" "\u{7a}")   (re.++ (re.range "\u{61}" "\u{7a}")   (re.++ (re.range "\u{61}" "\u{7a}")   (re.++ (re.range "\u{61}" "\u{7a}")   (re.++ (re.range "\u{61}" "\u{7a}")   (re.++ (re.range "\u{61}" "\u{7a}")   (re.++ (re.range "\u{61}" "\u{7a}")   (re.++ (re.range "\u{61}" "\u{7a}")   (re.++ (re.range "\u{61}" "\u{7a}")  (str.to_re ""))))))))))) (re.union  (re.++ (re.range "\u{61}" "\u{7a}")   (re.++ (re.range "\u{61}" "\u{7a}")   (re.++ (re.range "\u{61}" "\u{7a}")   (re.++ (re.range "\u{61}" "\u{7a}")   (re.++ (re.range "\u{61}" "\u{7a}")   (re.++ (re.range "\u{61}" "\u{7a}")   (re.++ (re.range "\u{61}" "\u{7a}")   (re.++ (re.range "\u{61}" "\u{7a}")   (re.++ (re.range "\u{61}" "\u{7a}")   (re.++ (re.range "\u{61}" "\u{7a}")   (re.++ (re.range "\u{61}" "\u{7a}")  (str.to_re "")))))))))))) (re.union  (re.++ (re.range "\u{61}" "\u{7a}")   (re.++ (re.range "\u{61}" "\u{7a}")   (re.++ (re.range "\u{61}" "\u{7a}")   (re.++ (re.range "\u{61}" "\u{7a}")   (re.++ (re.range "\u{61}" "\u{7a}")   (re.++ (re.range "\u{61}" "\u{7a}")   (re.++ (re.range "\u{61}" "\u{7a}")   (re.++ (re.range "\u{61}" "\u{7a}")   (re.++ (re.range "\u{61}" "\u{7a}")   (re.++ (re.range "\u{61}" "\u{7a}")   (re.++ (re.range "\u{61}" "\u{7a}")   (re.++ (re.range "\u{61}" "\u{7a}")  (str.to_re "")))))))))))))  (re.++ (re.range "\u{61}" "\u{7a}")   (re.++ (re.range "\u{61}" "\u{7a}")   (re.++ (re.range "\u{61}" "\u{7a}")   (re.++ (re.range "\u{61}" "\u{7a}")   (re.++ (re.range "\u{61}" "\u{7a}")   (re.++ (re.range "\u{61}" "\u{7a}")   (re.++ (re.range "\u{61}" "\u{7a}")   (re.++ (re.range "\u{61}" "\u{7a}")   (re.++ (re.range "\u{61}" "\u{7a}")   (re.++ (re.range "\u{61}" "\u{7a}")   (re.++ (re.range "\u{61}" "\u{7a}")   (re.++ (re.range "\u{61}" "\u{7a}")   (re.++ (re.range "\u{61}" "\u{7a}")  (str.to_re ""))))))))))))))))))))))))))) (re.++  (re.++  (re.union (str.to_re "") (re.union  (re.++ (re.range "\u{30}" "\u{39}")  (str.to_re "")) (re.union  (re.++ (re.range "\u{30}" "\u{39}")   (re.++ (re.range "\u{30}" "\u{39}")  (str.to_re ""))) (re.union  (re.++ (re.range "\u{30}" "\u{39}")   (re.++ (re.range "\u{30}" "\u{39}")   (re.++ (re.range "\u{30}" "\u{39}")  (str.to_re "")))) (re.union  (re.++ (re.range "\u{30}" "\u{39}")   (re.++ (re.range "\u{30}" "\u{39}")   (re.++ (re.range "\u{30}" "\u{39}")   (re.++ (re.range "\u{30}" "\u{39}")  (str.to_re ""))))) (re.union  (re.++ (re.range "\u{30}" "\u{39}")   (re.++ (re.range "\u{30}" "\u{39}")   (re.++ (re.range "\u{30}" "\u{39}")   (re.++ (re.range "\u{30}" "\u{39}")   (re.++ (re.range "\u{30}" "\u{39}")  (str.to_re "")))))) (re.union  (re.++ (re.range "\u{30}" "\u{39}")   (re.++ (re.range "\u{30}" "\u{39}")   (re.++ (re.range "\u{30}" "\u{39}")   (re.++ (re.range "\u{30}" "\u{39}")   (re.++ (re.range "\u{30}" "\u{39}")   (re.++ (re.range "\u{30}" "\u{39}")  (str.to_re ""))))))) (re.union  (re.++ (re.range "\u{30}" "\u{39}")   (re.++ (re.range "\u{30}" "\u{39}")   (re.++ (re.range "\u{30}" "\u{39}")   (re.++ (re.range "\u{30}" "\u{39}")   (re.++ (re.range "\u{30}" "\u{39}")   (re.++ (re.range "\u{30}" "\u{39}")   (re.++ (re.range "\u{30}" "\u{39}")  (str.to_re "")))))))) (re.union  (re.++ (re.range "\u{30}" "\u{39}")   (re.++ (re.range "\u{30}" "\u{39}")   (re.++ (re.range "\u{30}" "\u{39}")   (re.++ (re.range "\u{30}" "\u{39}")   (re.++ (re.range "\u{30}" "\u{39}")   (re.++ (re.range "\u{30}" "\u{39}")   (re.++ (re.range "\u{30}" "\u{39}")   (re.++ (re.range "\u{30}" "\u{39}")  (str.to_re ""))))))))) (re.union  (re.++ (re.range "\u{30}" "\u{39}")   (re.++ (re.range "\u{30}" "\u{39}")   (re.++ (re.range "\u{30}" "\u{39}")   (re.++ (re.range "\u{30}" "\u{39}")   (re.++ (re.range "\u{30}" "\u{39}")   (re.++ (re.range "\u{30}" "\u{39}")   (re.++ (re.range "\u{30}" "\u{39}")   (re.++ (re.range "\u{30}" "\u{39}")   (re.++ (re.range "\u{30}" "\u{39}")  (str.to_re "")))))))))) (re.union  (re.++ (re.range "\u{30}" "\u{39}")   (re.++ (re.range "\u{30}" "\u{39}")   (re.++ (re.range "\u{30}" "\u{39}")   (re.++ (re.range "\u{30}" "\u{39}")   (re.++ (re.range "\u{30}" "\u{39}")   (re.++ (re.range "\u{30}" "\u{39}")   (re.++ (re.range "\u{30}" "\u{39}")   (re.++ (re.range "\u{30}" "\u{39}")   (re.++ (re.range "\u{30}" "\u{39}")   (re.++ (re.range "\u{30}" "\u{39}")  (str.to_re ""))))))))))) (re.union  (re.++ (re.range "\u{30}" "\u{39}")   (re.++ (re.range "\u{30}" "\u{39}")   (re.++ (re.range "\u{30}" "\u{39}")   (re.++ (re.range "\u{30}" "\u{39}")   (re.++ (re.range "\u{30}" "\u{39}")   (re.++ (re.range "\u{30}" "\u{39}")   (re.++ (re.range "\u{30}" "\u{39}")   (re.++ (re.range "\u{30}" "\u{39}")   (re.++ (re.range "\u{30}" "\u{39}")   (re.++ (re.range "\u{30}" "\u{39}")   (re.++ (re.range "\u{30}" "\u{39}")  (str.to_re ""))))))))))))  (re.++ (re.range "\u{30}" "\u{39}")   (re.++ (re.range "\u{30}" "\u{39}")   (re.++ (re.range "\u{30}" "\u{39}")   (re.++ (re.range "\u{30}" "\u{39}")   (re.++ (re.range "\u{30}" "\u{39}")   (re.++ (re.range "\u{30}" "\u{39}")   (re.++ (re.range "\u{30}" "\u{39}")   (re.++ (re.range "\u{30}" "\u{39}")   (re.++ (re.range "\u{30}" "\u{39}")   (re.++ (re.range "\u{30}" "\u{39}")   (re.++ (re.range "\u{30}" "\u{39}")   (re.++ (re.range "\u{30}" "\u{39}")  (str.to_re ""))))))))))))))))))))))))) (re.range "\u{61}" "\u{7a}"))  (re.union   (re.union (re.range "\u{30}" "\u{39}") (re.range "\u{61}" "\u{7a}")) (re.union  (re.++  (re.union (re.range "\u{30}" "\u{39}") (re.range "\u{61}" "\u{7a}"))    (re.union (re.range "\u{30}" "\u{39}") (re.range "\u{61}" "\u{7a}"))) (re.union  (re.++  (re.union (re.range "\u{30}" "\u{39}") (re.range "\u{61}" "\u{7a}"))   (re.++  (re.union (re.range "\u{30}" "\u{39}") (re.range "\u{61}" "\u{7a}"))    (re.union (re.range "\u{30}" "\u{39}") (re.range "\u{61}" "\u{7a}")))) (re.union  (re.++  (re.union (re.range "\u{30}" "\u{39}") (re.range "\u{61}" "\u{7a}"))   (re.++  (re.union (re.range "\u{30}" "\u{39}") (re.range "\u{61}" "\u{7a}"))   (re.++  (re.union (re.range "\u{30}" "\u{39}") (re.range "\u{61}" "\u{7a}"))    (re.union (re.range "\u{30}" "\u{39}") (re.range "\u{61}" "\u{7a}"))))) (re.union  (re.++  (re.union (re.range "\u{30}" "\u{39}") (re.range "\u{61}" "\u{7a}"))   (re.++  (re.union (re.range "\u{30}" "\u{39}") (re.range "\u{61}" "\u{7a}"))   (re.++  (re.union (re.range "\u{30}" "\u{39}") (re.range "\u{61}" "\u{7a}"))   (re.++  (re.union (re.range "\u{30}" "\u{39}") (re.range "\u{61}" "\u{7a}"))    (re.union (re.range "\u{30}" "\u{39}") (re.range "\u{61}" "\u{7a}")))))) (re.union  (re.++  (re.union (re.range "\u{30}" "\u{39}") (re.range "\u{61}" "\u{7a}"))   (re.++  (re.union (re.range "\u{30}" "\u{39}") (re.range "\u{61}" "\u{7a}"))   (re.++  (re.union (re.range "\u{30}" "\u{39}") (re.range "\u{61}" "\u{7a}"))   (re.++  (re.union (re.range "\u{30}" "\u{39}") (re.range "\u{61}" "\u{7a}"))   (re.++  (re.union (re.range "\u{30}" "\u{39}") (re.range "\u{61}" "\u{7a}"))    (re.union (re.range "\u{30}" "\u{39}") (re.range "\u{61}" "\u{7a}"))))))) (re.union  (re.++  (re.union (re.range "\u{30}" "\u{39}") (re.range "\u{61}" "\u{7a}"))   (re.++  (re.union (re.range "\u{30}" "\u{39}") (re.range "\u{61}" "\u{7a}"))   (re.++  (re.union (re.range "\u{30}" "\u{39}") (re.range "\u{61}" "\u{7a}"))   (re.++  (re.union (re.range "\u{30}" "\u{39}") (re.range "\u{61}" "\u{7a}"))   (re.++  (re.union (re.range "\u{30}" "\u{39}") (re.range "\u{61}" "\u{7a}"))   (re.++  (re.union (re.range "\u{30}" "\u{39}") (re.range "\u{61}" "\u{7a}"))    (re.union (re.range "\u{30}" "\u{39}") (re.range "\u{61}" "\u{7a}")))))))) (re.union  (re.++  (re.union (re.range "\u{30}" "\u{39}") (re.range "\u{61}" "\u{7a}"))   (re.++  (re.union (re.range "\u{30}" "\u{39}") (re.range "\u{61}" "\u{7a}"))   (re.++  (re.union (re.range "\u{30}" "\u{39}") (re.range "\u{61}" "\u{7a}"))   (re.++  (re.union (re.range "\u{30}" "\u{39}") (re.range "\u{61}" "\u{7a}"))   (re.++  (re.union (re.range "\u{30}" "\u{39}") (re.range "\u{61}" "\u{7a}"))   (re.++  (re.union (re.range "\u{30}" "\u{39}") (re.range "\u{61}" "\u{7a}"))   (re.++  (re.union (re.range "\u{30}" "\u{39}") (re.range "\u{61}" "\u{7a}"))    (re.union (re.range "\u{30}" "\u{39}") (re.range "\u{61}" "\u{7a}"))))))))) (re.union  (re.++  (re.union (re.range "\u{30}" "\u{39}") (re.range "\u{61}" "\u{7a}"))   (re.++  (re.union (re.range "\u{30}" "\u{39}") (re.range "\u{61}" "\u{7a}"))   (re.++  (re.union (re.range "\u{30}" "\u{39}") (re.range "\u{61}" "\u{7a}"))   (re.++  (re.union (re.range "\u{30}" "\u{39}") (re.range "\u{61}" "\u{7a}"))   (re.++  (re.union (re.range "\u{30}" "\u{39}") (re.range "\u{61}" "\u{7a}"))   (re.++  (re.union (re.range "\u{30}" "\u{39}") (re.range "\u{61}" "\u{7a}"))   (re.++  (re.union (re.range "\u{30}" "\u{39}") (re.range "\u{61}" "\u{7a}"))   (re.++  (re.union (re.range "\u{30}" "\u{39}") (re.range "\u{61}" "\u{7a}"))    (re.union (re.range "\u{30}" "\u{39}") (re.range "\u{61}" "\u{7a}")))))))))) (re.union  (re.++  (re.union (re.range "\u{30}" "\u{39}") (re.range "\u{61}" "\u{7a}"))   (re.++  (re.union (re.range "\u{30}" "\u{39}") (re.range "\u{61}" "\u{7a}"))   (re.++  (re.union (re.range "\u{30}" "\u{39}") (re.range "\u{61}" "\u{7a}"))   (re.++  (re.union (re.range "\u{30}" "\u{39}") (re.range "\u{61}" "\u{7a}"))   (re.++  (re.union (re.range "\u{30}" "\u{39}") (re.range "\u{61}" "\u{7a}"))   (re.++  (re.union (re.range "\u{30}" "\u{39}") (re.range "\u{61}" "\u{7a}"))   (re.++  (re.union (re.range "\u{30}" "\u{39}") (re.range "\u{61}" "\u{7a}"))   (re.++  (re.union (re.range "\u{30}" "\u{39}") (re.range "\u{61}" "\u{7a}"))   (re.++  (re.union (re.range "\u{30}" "\u{39}") (re.range "\u{61}" "\u{7a}"))    (re.union (re.range "\u{30}" "\u{39}") (re.range "\u{61}" "\u{7a}")))))))))))  (re.++  (re.union (re.range "\u{30}" "\u{39}") (re.range "\u{61}" "\u{7a}"))   (re.++  (re.union (re.range "\u{30}" "\u{39}") (re.range "\u{61}" "\u{7a}"))   (re.++  (re.union (re.range "\u{30}" "\u{39}") (re.range "\u{61}" "\u{7a}"))   (re.++  (re.union (re.range "\u{30}" "\u{39}") (re.range "\u{61}" "\u{7a}"))   (re.++  (re.union (re.range "\u{30}" "\u{39}") (re.range "\u{61}" "\u{7a}"))   (re.++  (re.union (re.range "\u{30}" "\u{39}") (re.range "\u{61}" "\u{7a}"))   (re.++  (re.union (re.range "\u{30}" "\u{39}") (re.range "\u{61}" "\u{7a}"))   (re.++  (re.union (re.range "\u{30}" "\u{39}") (re.range "\u{61}" "\u{7a}"))   (re.++  (re.union (re.range "\u{30}" "\u{39}") (re.range "\u{61}" "\u{7a}"))   (re.++  (re.union (re.range "\u{30}" "\u{39}") (re.range "\u{61}" "\u{7a}"))    (re.union (re.range "\u{30}" "\u{39}") (re.range "\u{61}" "\u{7a}")))))))))))))))))))))))) )))
(check-sat)
(get-model)