TCS_Benchmarks/redos_fix/snort3_output_distinct_3713_3712_0_0.txt
([a-z]{0,13})([0-9a-z]{1,11})
([a-z]{0,13})([0-9]{0,12}[a-z])([0-9a-z]{1,11})